NAME : RWPToy-0-2.1564620016.tour
COMMENT : Length = 1564620016
COMMENT : Found by LKH [Keld Helsgaun] Sat Nov 24 00:57:24 2018
TYPE : TOUR
DIMENSION : 55
TOUR_SECTION
1
20
44
26
12
31
17
15
35
39
19
23
2
13
10
43
42
4
49
5
8
21
7
11
46
38
40
14
32
51
45
37
3
24
27
28
47
48
34
33
36
30
22
41
18
29
16
25
6
50
9
53
55
54
52
-1
EOF
